c File: data_files/evolved_graphs/g7905.col
c
c Auto generated graph
c
p edge 100 17
e 2 45
e 3 53
e 5 50
e 7 30
e 9 100
e 11 43
e 14 43
e 15 34
e 16 25
e 17 29
e 17 36
e 18 39
e 20 27
e 22 41
e 24 26
e 63 77
e 70 78
